(set-logic HORN)
(set-info :source |
    Benchmark: C_VC
    Output by Princess (http://www.philipp.ruemmer.org/princess.shtml)
|)
(set-info :status sat)
(declare-heap Heap Addr HeapObject
 defObj
 ((HeapObject 0) (TSLL 0)) (
  (
   (O_Int (getInt Int))
   (O_Addr (getAddr Addr))
   (O_TSLL (getTSLL TSLL))
   (defObj)
  )
  (
   (TSLL (next Addr) (data Int))
  )
))
(declare-fun inv_main101 (Heap Addr Addr Int Addr) Bool)
(declare-fun inv_main11 (Heap Addr Addr Int) Bool)
(declare-fun inv_main12 (Heap Addr Addr Int Addr) Bool)
(declare-fun inv_main13 (Heap Addr Addr Int) Bool)
(declare-fun inv_main2 (Heap) Bool)
(declare-fun inv_main20 (Heap Addr Addr Int) Bool)
(declare-fun inv_main21 (Heap Addr Addr Int) Bool)
(declare-fun inv_main25 (Heap Addr Addr Int) Bool)
(declare-fun inv_main28 (Heap Addr Addr Int) Bool)
(declare-fun inv_main29 (Heap Addr Addr Int) Bool)
(declare-fun inv_main3 (Heap Addr) Bool)
(declare-fun inv_main30 (Heap Addr Addr Int) Bool)
(declare-fun inv_main31 (Heap Addr Addr Int Addr) Bool)
(declare-fun inv_main34 (Heap Addr Addr Int) Bool)
(declare-fun inv_main36 (Heap Addr Addr Int) Bool)
(declare-fun inv_main4 (Heap Addr) Bool)
(declare-fun inv_main42 (Heap Addr Addr Int) Bool)
(declare-fun inv_main46 (Heap Addr Addr Int) Bool)
(declare-fun inv_main49 (Heap Addr Addr Int) Bool)
(declare-fun inv_main53 (Heap Addr Addr Int Addr) Bool)
(declare-fun inv_main54 (Heap Addr Addr Int Addr) Bool)
(declare-fun inv_main55 (Heap Addr Addr Int Addr) Bool)
(declare-fun inv_main57 (Heap Addr Addr Int Addr) Bool)
(declare-fun inv_main58 (Heap Addr Addr Int Addr) Bool)
(declare-fun inv_main60 (Heap Addr Addr Int Addr) Bool)
(declare-fun inv_main61 (Heap Addr Addr Int Addr Addr) Bool)
(declare-fun inv_main63 (Heap Addr Addr Int Addr) Bool)
(declare-fun inv_main64 (Heap Addr Addr Int Addr) Bool)
(declare-fun inv_main65 (Heap Addr Addr Int Addr) Bool)
(declare-fun inv_main68 (Heap Addr Addr Int Addr) Bool)
(declare-fun inv_main7 (Heap Addr Addr Int) Bool)
(declare-fun inv_main72 (Heap Addr Addr Int Addr) Bool)
(declare-fun inv_main76 (Heap Addr Addr Int Addr) Bool)
(declare-fun inv_main78 (Heap Addr Addr Int Addr) Bool)
(declare-fun inv_main83 (Heap Addr Addr Int Addr) Bool)
(declare-fun inv_main84 (Heap Addr Addr Int Addr) Bool)
(declare-fun inv_main88 (Heap Addr Addr Int Addr) Bool)
(declare-fun inv_main92 (Heap Addr Addr Int Addr) Bool)
(declare-fun inv_main94 (Heap Addr Addr Int Addr) Bool)
(assert (inv_main2 emptyHeap))
(assert (forall ((var0 Int) (var1 Heap) (var2 Addr) (var3 Addr) (var4 Addr)) (or (not (inv_main53 var1 var3 var2 var0 var4)) (inv_main54 (write var1 var4 (O_TSLL (TSLL (next (getTSLL (read var1 var4))) 1))) var3 var2 var0 var4))))
(assert (forall ((var0 Int) (var1 Addr) (var2 Int) (var3 Heap) (var4 Heap) (var5 Addr) (var6 Addr) (var7 Addr) (var8 Addr) (var9 Addr) (var10 Addr)) (or (not (and (inv_main55 var3 var6 var5 var0 var9) (and (not (= var8 nullAddr)) (and (and (and (and (and (= var4 var3) (= var7 var6)) (= var10 var5)) (= var2 var0)) (= var1 var9)) (= var8 (next (getTSLL (read var3 var5)))))))) (inv_main58 var4 var7 var10 var2 var1))))
(assert (forall ((var0 Int) (var1 Heap) (var2 Addr) (var3 Addr) (var4 TSLL) (var5 Int)) (or (not (and (inv_main7 var1 var3 var2 var0) (or (not (= var5 0)) (= var0 0)))) (inv_main12 (newHeap (alloc var1 (O_TSLL var4))) var3 var2 var0 (newAddr (alloc var1 (O_TSLL var4)))))))
(assert (forall ((var0 Int) (var1 Addr) (var2 Int) (var3 Heap) (var4 Heap) (var5 Addr) (var6 Addr) (var7 Int) (var8 Addr)) (or (not (and (inv_main46 var3 var6 var5 var0) (and (not (= var2 1)) (and (and (and (and (= var4 var3) (= var8 var6)) (= var1 var5)) (= var7 var0)) (= var2 (data (getTSLL (read var3 var5)))))))) (inv_main49 var4 var8 var1 var7))))
(assert (forall ((var0 Int) (var1 Heap) (var2 Addr) (var3 Addr) (var4 Addr)) (or (not (inv_main58 var1 var3 var2 var0 var4)) (inv_main61 var1 var3 var2 var0 var4 (next (getTSLL (read var1 var2)))))))
(assert (forall ((var0 Int) (var1 Heap) (var2 Addr) (var3 Addr) (var4 Heap) (var5 Addr) (var6 Addr) (var7 Addr) (var8 Int)) (or (not (and (inv_main42 var4 var6 var5 var0) (and (and (and (and (= var1 var4) (= var7 var6)) (= var2 var5)) (= var8 var0)) (= var3 (next (getTSLL (read var4 var5))))))) (inv_main46 var1 var7 var3 var8))))
(assert (forall ((var0 Int) (var1 Heap) (var2 Addr) (var3 Addr)) (or (not (inv_main28 var1 var3 var2 var0)) (inv_main31 var1 var3 var2 var0 (next (getTSLL (read var1 var2)))))))
(assert (forall ((var0 Int) (var1 Heap) (var2 Addr) (var3 Addr) (var4 Addr)) (or (not (inv_main12 var1 var4 var3 var0 var2)) (inv_main11 (write var1 var3 (O_TSLL (TSLL var2 (data (getTSLL (read var1 var3)))))) var4 var3 var0))))
(assert (forall ((var0 Int) (var1 Int) (var2 Heap) (var3 Addr) (var4 Addr) (var5 Addr) (var6 Int) (var7 Addr) (var8 Heap) (var9 Addr) (var10 Addr)) (or (not (and (inv_main65 var2 var5 var4 var0 var9) (and (and (and (and (and (= var8 var2) (= var7 var5)) (= var3 var4)) (= var6 var0)) (= var10 var9)) (= var1 (data (getTSLL (read var2 var4))))))) (inv_main68 var8 var7 var3 var1 var10))))
(assert (forall ((var0 Addr) (var1 Int) (var2 Addr) (var3 Heap) (var4 Int) (var5 Addr) (var6 Addr) (var7 Heap) (var8 Addr)) (or (not (and (inv_main11 var3 var6 var5 var1) (and (and (and (and (= var7 var3) (= var2 var6)) (= var8 var5)) (= var4 var1)) (= var0 (next (getTSLL (read var3 var5))))))) (inv_main13 var7 var2 var0 var4))))
(assert (forall ((var0 Int) (var1 Int) (var2 Heap) (var3 Heap) (var4 Addr) (var5 Addr) (var6 Addr) (var7 Int) (var8 Addr)) (or (not (and (inv_main13 var3 var5 var4 var1) (and (not (= var7 0)) (and (and (and (= var2 (write var3 var4 (O_TSLL (TSLL nullAddr (data (getTSLL (read var3 var4))))))) (= var6 var5)) (= var8 var4)) (= var0 var1))))) (inv_main20 var2 var6 var8 1))))
(assert (forall ((var0 Int) (var1 Int) (var2 Heap) (var3 Heap) (var4 Addr) (var5 Addr) (var6 Addr) (var7 Addr) (var8 Int)) (or (not (and (inv_main13 var3 var5 var4 var1) (and (not (= var0 0)) (and (= var8 0) (and (and (and (= var2 (write var3 var4 (O_TSLL (TSLL nullAddr (data (getTSLL (read var3 var4))))))) (= var6 var5)) (= var7 var4)) (= var0 var1)))))) (inv_main20 var2 var6 var7 var0))))
(assert (forall ((var0 Heap) (var1 Addr)) (or (not (inv_main3 var0 var1)) (inv_main4 (write var0 var1 (O_TSLL (TSLL nullAddr (data (getTSLL (read var0 var1)))))) var1))))
(assert (forall ((var0 Int) (var1 Int) (var2 Heap) (var3 Addr) (var4 Addr) (var5 Addr) (var6 Addr) (var7 Addr) (var8 Heap)) (or (not (and (inv_main34 var2 var5 var4 var1) (and (and (and (and (= var8 var2) (= var7 var5)) (= var6 var4)) (= var0 var1)) (= var3 (next (getTSLL (read var2 var4))))))) (inv_main28 var8 var7 var3 var0))))
(assert (forall ((var0 Int) (var1 Heap) (var2 Addr) (var3 Addr) (var4 Int)) (or (not (and (inv_main7 var1 var3 var2 var0) (and (not (= nullAddr var3)) (and (= var4 0) (not (= var0 0)))))) (inv_main28 var1 var3 var3 0))))
(assert (forall ((var0 Int) (var1 Addr) (var2 Heap) (var3 Int) (var4 Addr) (var5 Addr) (var6 Addr) (var7 Heap) (var8 Addr) (var9 Addr) (var10 Addr)) (or (not (and (inv_main92 var2 var6 var5 var0 var9) (and (and (and (and (and (= var7 var2) (= var10 var6)) (= var1 var5)) (= var3 var0)) (= var8 var9)) (= var4 (next (getTSLL (read var2 var5))))))) (inv_main64 var7 var10 var4 var3 var8))))
(assert (forall ((var0 Int) (var1 Heap) (var2 Addr) (var3 Addr) (var4 Addr)) (or (not (and (inv_main63 var1 var3 var2 var0 var4) (= var2 nullAddr))) (inv_main64 var1 var3 var2 var0 var4))))
(assert (forall ((var0 Int) (var1 Addr) (var2 Addr) (var3 Addr) (var4 Heap) (var5 Int) (var6 Addr) (var7 Addr) (var8 Int) (var9 Addr) (var10 Addr) (var11 Addr) (var12 Heap) (var13 Heap) (var14 Int) (var15 Int) (var16 Addr)) (or (not (and (inv_main63 var13 var7 var6 var0 var10) (and (and (= var15 0) (and (not (= var6 nullAddr)) (and (and (and (and (and (= var4 var13) (= var11 var7)) (= var1 var6)) (= var8 var0)) (= var3 var10)) (= var14 (data (getTSLL (read var13 var6))))))) (and (and (and (and (and (= var12 var4) (= var9 var11)) (= var2 var1)) (= var5 var8)) (= var16 var3)) (or (and (not (= var14 1)) (= var15 1)) (and (= var14 1) (= var15 0))))))) (inv_main64 var12 var9 var2 var5 var16))))
(assert (forall ((var0 Int) (var1 Int) (var2 Heap) (var3 Int) (var4 Addr) (var5 Addr) (var6 Addr) (var7 Addr) (var8 Addr) (var9 Addr) (var10 Heap)) (or (not (and (inv_main68 var2 var6 var5 var1 var9) (and (not (= var0 0)) (and (and (and (and (and (= var10 var2) (= var8 var6)) (= var7 var5)) (= var3 var1)) (= var4 var9)) (= var0 (data (getTSLL (read var2 var5)))))))) (inv_main72 var10 var8 var7 var3 var4))))
(assert (forall ((var0 Int) (var1 Addr) (var2 Heap) (var3 Addr) (var4 Int) (var5 Addr) (var6 Addr) (var7 Addr) (var8 Heap) (var9 Addr) (var10 Addr)) (or (not (and (inv_main55 var2 var7 var6 var0 var10) (and (= var5 nullAddr) (and (and (and (and (and (= var8 var2) (= var1 var7)) (= var3 var6)) (= var4 var0)) (= var9 var10)) (= var5 (next (getTSLL (read var2 var6)))))))) (inv_main57 var8 var1 var3 var4 var9))))
(assert (forall ((var0 Heap) (var1 TSLL)) (or (not (inv_main2 var0)) (inv_main3 (newHeap (alloc var0 (O_TSLL var1))) (newAddr (alloc var0 (O_TSLL var1)))))))
(assert (forall ((var0 Int) (var1 Heap) (var2 Addr) (var3 Heap) (var4 Addr) (var5 Int) (var6 Addr) (var7 Addr) (var8 Int) (var9 Int) (var10 Addr) (var11 Heap) (var12 Addr) (var13 Int) (var14 Addr)) (or (not (and (inv_main31 var11 var7 var6 var0 var12) (and (and (not (= var5 0)) (and (not (= var12 nullAddr)) (and (and (and (and (= var3 var11) (= var2 var7)) (= var10 var6)) (= var9 var0)) (= var8 (data (getTSLL (read var11 (next (getTSLL (read var11 var6)))))))))) (and (and (and (and (= var1 var3) (= var4 var2)) (= var14 var10)) (= var13 var9)) (or (and (= var8 0) (= var5 1)) (and (not (= var8 0)) (= var5 0))))))) (inv_main30 var1 var4 var14 var13))))
(assert (forall ((var0 Addr) (var1 Int) (var2 Addr) (var3 Int) (var4 Heap) (var5 Heap) (var6 Addr) (var7 Addr) (var8 Int) (var9 Addr) (var10 Addr)) (or (not (and (inv_main84 var4 var7 var6 var1 var9) (and (= var3 1) (and (= var8 1) (and (and (and (and (and (= var5 var4) (= var0 var7)) (= var2 var6)) (= var3 var1)) (= var10 var9)) (= var8 (data (getTSLL (read var4 var6))))))))) (inv_main92 var5 var0 var2 var3 var10))))
(assert (forall ((var0 Int) (var1 Addr) (var2 Heap) (var3 Addr) (var4 Addr) (var5 Addr) (var6 Heap) (var7 TSLL) (var8 Int) (var9 Addr)) (or (not (and (inv_main29 var2 var4 var3 var0) (and (= var5 nullAddr) (and (and (and (and (= var6 var2) (= var1 var4)) (= var9 var3)) (= var8 var0)) (= var5 (next (getTSLL (read var2 var3)))))))) (inv_main53 (newHeap (alloc var6 (O_TSLL var7))) var1 var9 var8 (newAddr (alloc var6 (O_TSLL var7)))))))
(assert (forall ((var0 Heap) (var1 Int) (var2 Int) (var3 Addr) (var4 Int) (var5 Addr) (var6 Heap) (var7 Addr) (var8 Addr) (var9 TSLL) (var10 Addr)) (or (not (and (inv_main29 var6 var8 var7 var1) (and (= var2 0) (and (not (= var5 nullAddr)) (and (and (and (and (= var0 var6) (= var3 var8)) (= var10 var7)) (= var4 var1)) (= var5 (next (getTSLL (read var6 var7))))))))) (inv_main53 (newHeap (alloc var0 (O_TSLL var9))) var3 var10 var4 (newAddr (alloc var0 (O_TSLL var9)))))))
(assert (forall ((var0 Addr) (var1 Int) (var2 Int) (var3 Addr) (var4 Heap) (var5 Addr) (var6 Addr) (var7 Heap) (var8 Addr) (var9 Addr) (var10 Int)) (or (not (and (inv_main83 var4 var6 var5 var1 var9) (and (and (and (and (and (= var7 var4) (= var0 var6)) (= var3 var5)) (= var10 var1)) (= var8 var9)) (= var2 (data (getTSLL (read var4 var5))))))) (inv_main84 var7 var0 var3 var2 var8))))
(assert (forall ((var0 Int) (var1 Heap) (var2 Addr) (var3 Addr) (var4 Addr) (var5 Addr)) (or (not (inv_main61 var1 var3 var2 var0 var5 var4)) (inv_main60 (write var1 var5 (O_TSLL (TSLL var4 (data (getTSLL (read var1 var5)))))) var3 var2 var0 var5))))
(assert (forall ((var0 Int) (var1 Heap) (var2 Addr) (var3 Addr) (var4 Int)) (or (not (and (inv_main7 var1 var3 var2 var0) (and (= nullAddr var3) (and (= var4 0) (not (= var0 0)))))) (inv_main25 var1 var3 var3 var0))))
(assert (forall ((var0 Int) (var1 Heap) (var2 Addr) (var3 Heap) (var4 Addr) (var5 Addr) (var6 Addr) (var7 Addr) (var8 Addr) (var9 Int) (var10 Addr)) (or (not (and (inv_main76 var1 var5 var4 var0 var8) (and (and (and (and (and (= var3 var1) (= var2 var5)) (= var10 var4)) (= var9 var0)) (= var7 var8)) (= var6 (next (getTSLL (read var1 var4))))))) (inv_main63 var3 var2 var6 var9 var7))))
(assert (forall ((var0 Addr) (var1 Int) (var2 Int) (var3 Heap) (var4 Heap) (var5 Addr) (var6 Addr) (var7 Addr) (var8 Addr) (var9 Addr)) (or (not (and (inv_main57 var4 var6 var5 var2 var8) (and (and (and (and (= var3 (write var4 var5 (O_TSLL (TSLL var8 (data (getTSLL (read var4 var5))))))) (= var0 var6)) (= var9 var5)) (= var1 var2)) (= var7 var8)))) (inv_main63 var3 var0 var0 0 var7))))
(assert (forall ((var0 Int) (var1 Addr) (var2 Heap) (var3 Addr) (var4 Addr) (var5 Addr) (var6 Heap) (var7 Int) (var8 Addr) (var9 Addr)) (or (not (and (inv_main60 var2 var5 var4 var0 var8) (and (and (and (and (= var6 (write var2 var4 (O_TSLL (TSLL var8 (data (getTSLL (read var2 var4))))))) (= var9 var5)) (= var1 var4)) (= var7 var0)) (= var3 var8)))) (inv_main63 var6 var9 var9 0 var3))))
(assert (forall ((var0 Heap) (var1 Int) (var2 Int) (var3 Addr) (var4 Int) (var5 Addr) (var6 Heap) (var7 Addr) (var8 Addr) (var9 Addr)) (or (not (and (inv_main29 var6 var8 var7 var2) (and (not (= var1 0)) (and (not (= var5 nullAddr)) (and (and (and (and (= var0 var6) (= var3 var8)) (= var9 var7)) (= var4 var2)) (= var5 (next (getTSLL (read var6 var7))))))))) (inv_main42 var0 var3 var9 var4))))
(assert (forall ((var0 Int) (var1 Heap) (var2 Heap) (var3 Addr) (var4 Int) (var5 Addr) (var6 Addr) (var7 Int) (var8 Addr) (var9 Addr) (var10 Addr)) (or (not (and (inv_main68 var1 var6 var5 var0 var10) (and (= var7 0) (and (= var4 0) (and (and (and (and (and (= var2 var1) (= var8 var6)) (= var9 var5)) (= var7 var0)) (= var3 var10)) (= var4 (data (getTSLL (read var1 var5))))))))) (inv_main76 var2 var8 var9 var7 var3))))
(assert (forall ((var0 Heap) (var1 Addr) (var2 Int) (var3 Heap) (var4 Int) (var5 Int) (var6 Addr) (var7 Addr) (var8 Addr)) (or (not (and (inv_main30 var3 var8 var7 var2) (and (not (= var4 0)) (and (and (and (and (= var0 var3) (= var1 var8)) (= var6 var7)) (= var5 var2)) (= var4 (data (getTSLL (read var3 var7)))))))) (inv_main36 var0 var1 var6 var5))))
(assert (forall ((var0 Int) (var1 Int) (var2 Heap) (var3 Int) (var4 Addr) (var5 Addr) (var6 Addr) (var7 Addr) (var8 Addr) (var9 Heap) (var10 Addr)) (or (not (and (inv_main84 var2 var5 var4 var0 var8) (and (not (= var1 1)) (and (and (and (and (and (= var9 var2) (= var7 var5)) (= var10 var4)) (= var3 var0)) (= var6 var8)) (= var1 (data (getTSLL (read var2 var4)))))))) (inv_main88 var9 var7 var10 var3 var6))))
(assert (forall ((var0 Int) (var1 Heap) (var2 Addr) (var3 Addr) (var4 Addr) (var5 Addr) (var6 Heap) (var7 Int) (var8 Int)) (or (not (and (inv_main30 var1 var4 var3 var0) (and (= var7 0) (and (and (and (and (= var6 var1) (= var5 var4)) (= var2 var3)) (= var8 var0)) (= var7 (data (getTSLL (read var1 var3)))))))) (inv_main34 var6 var5 var2 var8))))
(assert (forall ((var0 Int) (var1 Int) (var2 Heap) (var3 Heap) (var4 Addr) (var5 Addr) (var6 Addr) (var7 Addr) (var8 Int)) (or (not (and (inv_main13 var3 var5 var4 var1) (and (= var0 0) (and (= var8 0) (and (and (and (= var2 (write var3 var4 (O_TSLL (TSLL nullAddr (data (getTSLL (read var3 var4))))))) (= var6 var5)) (= var7 var4)) (= var0 var1)))))) (inv_main21 var2 var6 var7 var0))))
(assert (forall ((var0 Int) (var1 Heap) (var2 Addr) (var3 Addr) (var4 Addr)) (or (not (inv_main54 var1 var3 var2 var0 var4)) (inv_main55 (write var1 var4 (O_TSLL (TSLL nullAddr (data (getTSLL (read var1 var4)))))) var3 var2 var0 var4))))
(assert (forall ((var0 Int) (var1 Heap) (var2 Addr) (var3 Addr) (var4 Addr)) (or (not (and (inv_main31 var1 var4 var3 var0 var2) (= var2 nullAddr))) (inv_main29 var1 var4 var3 var0))))
(assert (forall ((var0 Int) (var1 Addr) (var2 Heap) (var3 Addr) (var4 Addr) (var5 Int) (var6 Addr) (var7 Int) (var8 Addr) (var9 Heap) (var10 Heap) (var11 Addr) (var12 Addr) (var13 Int) (var14 Int)) (or (not (and (inv_main31 var9 var4 var3 var0 var11) (and (and (= var14 0) (and (not (= var11 nullAddr)) (and (and (and (and (= var2 var9) (= var1 var4)) (= var8 var3)) (= var7 var0)) (= var5 (data (getTSLL (read var9 (next (getTSLL (read var9 var3)))))))))) (and (and (and (and (= var10 var2) (= var12 var1)) (= var6 var8)) (= var13 var7)) (or (and (= var5 0) (= var14 1)) (and (not (= var5 0)) (= var14 0))))))) (inv_main29 var10 var12 var6 var13))))
(assert (forall ((var0 Int) (var1 Addr) (var2 Heap) (var3 Addr) (var4 Addr) (var5 Heap) (var6 Int) (var7 Addr) (var8 Int)) (or (not (and (inv_main46 var2 var4 var3 var0) (and (= var8 1) (and (and (and (and (= var5 var2) (= var7 var4)) (= var1 var3)) (= var6 var0)) (= var8 (data (getTSLL (read var2 var3)))))))) (inv_main29 var5 var7 var1 var6))))
(assert (forall ((var0 Heap) (var1 Addr) (var2 Int) (var3 Addr) (var4 Addr) (var5 Heap) (var6 Addr) (var7 Addr) (var8 Int) (var9 Int) (var10 Int) (var11 Addr) (var12 Addr) (var13 Addr) (var14 Heap) (var15 Int) (var16 Addr)) (or (not (and (inv_main63 var14 var7 var6 var2 var12) (and (and (not (= var10 0)) (and (not (= var6 nullAddr)) (and (and (and (and (and (= var5 var14) (= var13 var7)) (= var3 var6)) (= var9 var2)) (= var4 var12)) (= var15 (data (getTSLL (read var14 var6))))))) (and (and (and (and (and (= var0 var5) (= var16 var13)) (= var11 var3)) (= var8 var9)) (= var1 var4)) (or (and (not (= var15 1)) (= var10 1)) (and (= var15 1) (= var10 0))))))) (inv_main65 var0 var16 var11 var8 var1))))
(assert (forall ((var0 Int) (var1 Heap) (var2 Addr) (var3 Addr) (var4 Addr)) (or (not (and (inv_main64 var1 var3 var2 var0 var4) (and (not (= var3 nullAddr)) (= var2 nullAddr)))) (inv_main101 var1 var3 var3 var0 var4))))
(assert (forall ((var0 Int) (var1 Heap) (var2 Addr) (var3 Addr) (var4 Addr) (var5 Heap) (var6 Addr) (var7 Addr) (var8 Addr) (var9 Addr) (var10 Addr) (var11 Int) (var12 Addr) (var13 Heap) (var14 Int) (var15 Addr)) (or (not (and (inv_main101 var13 var4 var3 var0 var8) (and (and (not (= var7 nullAddr)) (and (and (and (and (and (= var5 var13) (= var10 var4)) (= var2 var3)) (= var11 var0)) (= var12 var8)) (= var6 (next (getTSLL (read var13 var3)))))) (and (and (and (and (= var1 (write var5 var10 defObj)) (= var15 var10)) (= var7 var6)) (= var14 var11)) (= var9 var12))))) (inv_main101 var1 var7 var7 var14 var9))))
(assert (forall ((var0 Int) (var1 Heap) (var2 Addr) (var3 Addr) (var4 Addr)) (or (not (and (inv_main64 var1 var3 var2 var0 var4) (not (= var2 nullAddr)))) (inv_main83 var1 var3 var2 var0 var4))))
(assert (forall ((var0 Int) (var1 Heap) (var2 Heap) (var3 Addr) (var4 Int) (var5 Addr) (var6 Addr) (var7 Int) (var8 Addr) (var9 Addr) (var10 Addr)) (or (not (and (inv_main68 var1 var6 var5 var0 var10) (and (not (= var7 0)) (and (= var4 0) (and (and (and (and (and (= var2 var1) (= var8 var6)) (= var9 var5)) (= var7 var0)) (= var3 var10)) (= var4 (data (getTSLL (read var1 var5))))))))) (inv_main78 var2 var8 var9 var7 var3))))
(assert (forall ((var0 Int) (var1 Heap) (var2 Addr) (var3 Addr)) (or (not (inv_main20 var1 var3 var2 var0)) (inv_main7 (write var1 var2 (O_TSLL (TSLL (next (getTSLL (read var1 var2))) 1))) var3 var2 var0))))
(assert (forall ((var0 Int) (var1 Heap) (var2 Addr) (var3 Addr)) (or (not (inv_main21 var1 var3 var2 var0)) (inv_main7 (write var1 var2 (O_TSLL (TSLL (next (getTSLL (read var1 var2))) 0))) var3 var2 var0))))
(assert (forall ((var0 Heap) (var1 Addr) (var2 Heap) (var3 Addr)) (or (not (and (inv_main4 var0 var1) (and (= var2 (write var0 var1 (O_TSLL (TSLL (next (getTSLL (read var0 var1))) 0)))) (= var3 var1)))) (inv_main7 var2 var3 var3 0))))
(assert (forall ((var0 Addr) (var1 Int) (var2 Addr) (var3 Int) (var4 Heap) (var5 Heap) (var6 Addr) (var7 Addr) (var8 Int) (var9 Addr) (var10 Addr)) (or (not (and (inv_main84 var4 var7 var6 var1 var9) (and (not (= var3 1)) (and (= var8 1) (and (and (and (and (and (= var5 var4) (= var0 var7)) (= var2 var6)) (= var3 var1)) (= var10 var9)) (= var8 (data (getTSLL (read var4 var6))))))))) (inv_main94 var5 var0 var2 var3 var10))))
(assert (forall ((var0 Heap) (var1 Addr)) (not (and (inv_main3 var0 var1) (not (is-O_TSLL (read var0 var1)))))))
(assert (forall ((var0 Heap) (var1 Addr)) (not (and (inv_main4 var0 var1) (not (is-O_TSLL (read var0 var1)))))))
(assert (forall ((var0 Int) (var1 Heap) (var2 Addr) (var3 Addr) (var4 Addr)) (not (and (inv_main12 var1 var4 var3 var0 var2) (not (is-O_TSLL (read var1 var3)))))))
(assert (forall ((var0 Int) (var1 Heap) (var2 Addr) (var3 Addr)) (not (and (inv_main11 var1 var3 var2 var0) (not (is-O_TSLL (read var1 var2)))))))
(assert (forall ((var0 Int) (var1 Heap) (var2 Addr) (var3 Addr)) (not (and (inv_main13 var1 var3 var2 var0) (not (is-O_TSLL (read var1 var2)))))))
(assert (forall ((var0 Int) (var1 Heap) (var2 Addr) (var3 Addr)) (not (and (inv_main20 var1 var3 var2 var0) (not (is-O_TSLL (read var1 var2)))))))
(assert (forall ((var0 Int) (var1 Heap) (var2 Addr) (var3 Addr)) (not (and (inv_main21 var1 var3 var2 var0) (not (is-O_TSLL (read var1 var2)))))))
(assert (forall ((var0 Int) (var1 Heap) (var2 Addr) (var3 Addr)) (not (inv_main25 var1 var3 var2 var0))))
(assert (forall ((var0 Int) (var1 Heap) (var2 Addr) (var3 Addr)) (not (and (inv_main28 var1 var3 var2 var0) (not (is-O_TSLL (read var1 var2)))))))
(assert (forall ((var0 Int) (var1 Heap) (var2 Addr) (var3 Addr) (var4 Addr)) (not (and (inv_main31 var1 var4 var3 var0 var2) (and (not (= var2 nullAddr)) (not (is-O_TSLL (read var1 var3))))))))
(assert (forall ((var0 Int) (var1 Heap) (var2 Addr) (var3 Addr) (var4 Addr)) (not (and (inv_main31 var1 var4 var3 var0 var2) (and (not (= var2 nullAddr)) (not (is-O_TSLL (read var1 (next (getTSLL (read var1 var3)))))))))))
(assert (forall ((var0 Int) (var1 Heap) (var2 Addr) (var3 Addr)) (not (and (inv_main30 var1 var3 var2 var0) (not (is-O_TSLL (read var1 var2)))))))
(assert (forall ((var0 Int) (var1 Heap) (var2 Addr) (var3 Addr)) (not (inv_main36 var1 var3 var2 var0))))
(assert (forall ((var0 Int) (var1 Heap) (var2 Addr) (var3 Addr)) (not (and (inv_main34 var1 var3 var2 var0) (not (is-O_TSLL (read var1 var2)))))))
(assert (forall ((var0 Int) (var1 Heap) (var2 Addr) (var3 Addr)) (not (and (inv_main29 var1 var3 var2 var0) (not (is-O_TSLL (read var1 var2)))))))
(assert (forall ((var0 Int) (var1 Heap) (var2 Addr) (var3 Addr)) (not (and (inv_main42 var1 var3 var2 var0) (not (is-O_TSLL (read var1 var2)))))))
(assert (forall ((var0 Int) (var1 Heap) (var2 Addr) (var3 Addr)) (not (and (inv_main46 var1 var3 var2 var0) (not (is-O_TSLL (read var1 var2)))))))
(assert (forall ((var0 Int) (var1 Heap) (var2 Addr) (var3 Addr)) (not (inv_main49 var1 var3 var2 var0))))
(assert (forall ((var0 Int) (var1 Heap) (var2 Addr) (var3 Addr) (var4 Addr)) (not (and (inv_main53 var1 var3 var2 var0 var4) (not (is-O_TSLL (read var1 var4)))))))
(assert (forall ((var0 Int) (var1 Heap) (var2 Addr) (var3 Addr) (var4 Addr)) (not (and (inv_main54 var1 var3 var2 var0 var4) (not (is-O_TSLL (read var1 var4)))))))
(assert (forall ((var0 Int) (var1 Heap) (var2 Addr) (var3 Addr) (var4 Addr)) (not (and (inv_main55 var1 var3 var2 var0 var4) (not (is-O_TSLL (read var1 var2)))))))
(assert (forall ((var0 Int) (var1 Heap) (var2 Addr) (var3 Addr) (var4 Addr)) (not (and (inv_main57 var1 var3 var2 var0 var4) (not (is-O_TSLL (read var1 var2)))))))
(assert (forall ((var0 Int) (var1 Heap) (var2 Addr) (var3 Addr) (var4 Addr)) (not (and (inv_main58 var1 var3 var2 var0 var4) (not (is-O_TSLL (read var1 var2)))))))
(assert (forall ((var0 Int) (var1 Heap) (var2 Addr) (var3 Addr) (var4 Addr) (var5 Addr)) (not (and (inv_main61 var1 var3 var2 var0 var5 var4) (not (is-O_TSLL (read var1 var5)))))))
(assert (forall ((var0 Int) (var1 Heap) (var2 Addr) (var3 Addr) (var4 Addr)) (not (and (inv_main60 var1 var3 var2 var0 var4) (not (is-O_TSLL (read var1 var2)))))))
(assert (forall ((var0 Int) (var1 Heap) (var2 Addr) (var3 Addr) (var4 Addr)) (not (and (inv_main63 var1 var3 var2 var0 var4) (and (not (= var2 nullAddr)) (not (is-O_TSLL (read var1 var2))))))))
(assert (forall ((var0 Int) (var1 Heap) (var2 Addr) (var3 Addr) (var4 Addr)) (not (and (inv_main65 var1 var3 var2 var0 var4) (not (is-O_TSLL (read var1 var2)))))))
(assert (forall ((var0 Int) (var1 Heap) (var2 Addr) (var3 Addr) (var4 Addr)) (not (and (inv_main68 var1 var3 var2 var0 var4) (not (is-O_TSLL (read var1 var2)))))))
(assert (forall ((var0 Int) (var1 Heap) (var2 Addr) (var3 Addr) (var4 Addr)) (not (inv_main72 var1 var3 var2 var0 var4))))
(assert (forall ((var0 Int) (var1 Heap) (var2 Addr) (var3 Addr) (var4 Addr)) (not (inv_main78 var1 var3 var2 var0 var4))))
(assert (forall ((var0 Int) (var1 Heap) (var2 Addr) (var3 Addr) (var4 Addr)) (not (and (inv_main76 var1 var3 var2 var0 var4) (not (is-O_TSLL (read var1 var2)))))))
(assert (forall ((var0 Int) (var1 Heap) (var2 Addr) (var3 Addr) (var4 Addr)) (not (and (inv_main83 var1 var3 var2 var0 var4) (not (is-O_TSLL (read var1 var2)))))))
(assert (forall ((var0 Int) (var1 Heap) (var2 Addr) (var3 Addr) (var4 Addr)) (not (and (inv_main84 var1 var3 var2 var0 var4) (not (is-O_TSLL (read var1 var2)))))))
(assert (forall ((var0 Int) (var1 Heap) (var2 Addr) (var3 Addr) (var4 Addr)) (not (inv_main88 var1 var3 var2 var0 var4))))
(assert (forall ((var0 Int) (var1 Heap) (var2 Addr) (var3 Addr) (var4 Addr)) (not (inv_main94 var1 var3 var2 var0 var4))))
(assert (forall ((var0 Int) (var1 Heap) (var2 Addr) (var3 Addr) (var4 Addr)) (not (and (inv_main92 var1 var3 var2 var0 var4) (not (is-O_TSLL (read var1 var2)))))))
(assert (forall ((var0 Int) (var1 Heap) (var2 Addr) (var3 Addr) (var4 Addr)) (not (and (inv_main101 var1 var3 var2 var0 var4) (not (is-O_TSLL (read var1 var2)))))))
(check-sat)
